;; translated from ./ctigar/nest-if2.c.vmt
;; original benchmark available at: https://es-static.fbk.eu/people/griggio/ic3ia/index.html
;; author: Alberto Griggio <griggio@fbk.eu>
(set-logic HORN)
(declare-fun state (Bool Bool Bool Bool Bool Int Int Int Int) Bool)
(assert (forall ((|.s.2| Bool) (|.s.0| Bool) (|.s.1| Bool) (|.s.0.next| Bool) (|.s.1.next| Bool) (|.s.2.next| Bool) (|.s.3.next| Bool) (|.s.4.next| Bool) (|main.i.next| Int) (|main.i| Int) (|main.k.next| Int) (|main.k| Int) (|main.l.next| Int) (|main.l| Int) (|main.n.next| Int) (|main.n| Int) (|.inputVar.0| Int) (|.s.4| Bool) (|.s.3| Bool)) (=> (let ((.def_20 (not .s.4)))
(let ((.def_17 (not .s.3)))
(let ((.def_14 (not .s.2)))
(let ((.def_10 (not .s.1)))
(let ((.def_12 (and .def_10 .s.0)))
(let ((.def_15 (and .def_12 .def_14)))
(let ((.def_18 (and .def_15 .def_17)))
(let ((.def_21 (and .def_18 .def_20)))
.def_21)))))))) (state |.s.1| |.s.0| |.s.2| |.s.3| |.s.4| |main.n| |main.l| |main.k| |main.i|))))
(assert (forall ((|.s.2| Bool) (|.s.0| Bool) (|.s.1| Bool) (|.s.0.next| Bool) (|.s.1.next| Bool) (|.s.2.next| Bool) (|.s.3.next| Bool) (|.s.4.next| Bool) (|main.i.next| Int) (|main.i| Int) (|main.k.next| Int) (|main.k| Int) (|main.l.next| Int) (|main.l| Int) (|main.n.next| Int) (|main.n| Int) (|.inputVar.0| Int) (|.s.4| Bool) (|.s.3| Bool)) (=> (and (state |.s.1| |.s.0| |.s.2| |.s.3| |.s.4| |main.n| |main.l| |main.k| |main.i|) (let ((.def_22 (not .s.0)))
(let ((.def_10 (not .s.1)))
(let ((.def_23 (and .def_10 .def_22)))
(let ((.def_14 (not .s.2)))
(let ((.def_102 (and .def_14 .def_23)))
(let ((.def_17 (not .s.3)))
(let ((.def_103 (and .def_17 .def_102)))
(let ((.def_20 (not .s.4)))
(let ((.def_315 (and .def_20 .def_103)))
(let ((.def_316 (not .def_315)))
(let ((.def_49 (not .s.0.next)))
(let ((.def_47 (not .s.1.next)))
(let ((.def_50 (and .def_47 .def_49)))
(let ((.def_45 (not .s.2.next)))
(let ((.def_51 (and .def_45 .def_50)))
(let ((.def_43 (not .s.3.next)))
(let ((.def_52 (and .def_43 .def_51)))
(let ((.def_41 (not .s.4.next)))
(let ((.def_53 (and .def_41 .def_52)))
(let ((.def_39 (= main.i main.i.next)))
(let ((.def_54 (and .def_39 .def_53)))
(let ((.def_36 (= main.k main.k.next)))
(let ((.def_55 (and .def_36 .def_54)))
(let ((.def_33 (= main.l main.l.next)))
(let ((.def_56 (and .def_33 .def_55)))
(let ((.def_30 (= main.n main.n.next)))
(let ((.def_57 (and .def_30 .def_56)))
(let ((.def_317 (or .def_57 .def_316)))
(let ((.def_82 (and .s.1.next .s.0.next)))
(let ((.def_83 (and .def_45 .def_82)))
(let ((.def_84 (and .def_43 .def_83)))
(let ((.def_309 (and .def_41 .def_84)))
(let ((.def_310 (and .def_39 .def_309)))
(let ((.def_311 (and .def_36 .def_310)))
(let ((.def_312 (and .def_33 .def_311)))
(let ((.def_313 (and .def_30 .def_312)))
(let ((.def_297 (<= main.l 0)))
(let ((.def_306 (not .def_297)))
(let ((.def_12 (and .def_10 .s.0)))
(let ((.def_15 (and .def_12 .def_14)))
(let ((.def_18 (and .def_15 .def_17)))
(let ((.def_21 (and .def_18 .def_20)))
(let ((.def_307 (and .def_21 .def_306)))
(let ((.def_308 (not .def_307)))
(let ((.def_314 (or .def_308 .def_313)))
(let ((.def_318 (and .def_314 .def_317)))
(let ((.def_144 (and .s.1.next .def_49)))
(let ((.def_173 (and .def_45 .def_144)))
(let ((.def_174 (and .def_43 .def_173)))
(let ((.def_300 (and .def_41 .def_174)))
(let ((.def_301 (and .def_39 .def_300)))
(let ((.def_302 (and .def_36 .def_301)))
(let ((.def_303 (and .def_33 .def_302)))
(let ((.def_304 (and .def_30 .def_303)))
(let ((.def_298 (and .def_21 .def_297)))
(let ((.def_299 (not .def_298)))
(let ((.def_305 (or .def_299 .def_304)))
(let ((.def_319 (and .def_305 .def_318)))
(let ((.def_72 (and .s.1 .def_22)))
(let ((.def_73 (and .def_14 .def_72)))
(let ((.def_74 (and .def_17 .def_73)))
(let ((.def_294 (and .def_20 .def_74)))
(let ((.def_295 (not .def_294)))
(let ((.def_296 (or .def_57 .def_295)))
(let ((.def_320 (and .def_296 .def_319)))
(let ((.def_288 (= main.k.next 1)))
(let ((.def_64 (and .s.2.next .def_50)))
(let ((.def_65 (and .def_43 .def_64)))
(let ((.def_66 (and .def_41 .def_65)))
(let ((.def_289 (and .def_66 .def_288)))
(let ((.def_290 (and .def_39 .def_289)))
(let ((.def_291 (and .def_33 .def_290)))
(let ((.def_292 (and .def_30 .def_291)))
(let ((.def_59 (and .s.1 .s.0)))
(let ((.def_60 (and .def_14 .def_59)))
(let ((.def_61 (and .def_17 .def_60)))
(let ((.def_286 (and .def_20 .def_61)))
(let ((.def_287 (not .def_286)))
(let ((.def_293 (or .def_287 .def_292)))
(let ((.def_321 (and .def_293 .def_320)))
(let ((.def_280 (and .s.4.next .def_65)))
(let ((.def_281 (and .def_39 .def_280)))
(let ((.def_282 (and .def_36 .def_281)))
(let ((.def_283 (and .def_33 .def_282)))
(let ((.def_284 (and .def_30 .def_283)))
(let ((.def_267 (<= main.n main.k)))
(let ((.def_24 (and .s.2 .def_23)))
(let ((.def_25 (and .def_17 .def_24)))
(let ((.def_266 (and .def_20 .def_25)))
(let ((.def_278 (and .def_266 .def_267)))
(let ((.def_279 (not .def_278)))
(let ((.def_285 (or .def_279 .def_284)))
(let ((.def_322 (and .def_285 .def_321)))
(let ((.def_93 (and .def_47 .s.0.next)))
(let ((.def_163 (and .s.2.next .def_93)))
(let ((.def_271 (and .def_43 .def_163)))
(let ((.def_272 (and .def_41 .def_271)))
(let ((.def_273 (and .def_39 .def_272)))
(let ((.def_274 (and .def_36 .def_273)))
(let ((.def_275 (and .def_33 .def_274)))
(let ((.def_276 (and .def_30 .def_275)))
(let ((.def_268 (not .def_267)))
(let ((.def_269 (and .def_266 .def_268)))
(let ((.def_270 (not .def_269)))
(let ((.def_277 (or .def_270 .def_276)))
(let ((.def_323 (and .def_277 .def_322)))
(let ((.def_145 (and .s.2.next .def_144)))
(let ((.def_259 (and .def_43 .def_145)))
(let ((.def_260 (and .def_41 .def_259)))
(let ((.def_261 (and .def_39 .def_260)))
(let ((.def_262 (and .def_36 .def_261)))
(let ((.def_263 (and .def_33 .def_262)))
(let ((.def_264 (and .def_30 .def_263)))
(let ((.def_252 (= .inputVar.0 0)))
(let ((.def_138 (and .def_12 .s.2)))
(let ((.def_248 (and .def_17 .def_138)))
(let ((.def_249 (and .def_20 .def_248)))
(let ((.def_257 (and .def_249 .def_252)))
(let ((.def_258 (not .def_257)))
(let ((.def_265 (or .def_258 .def_264)))
(let ((.def_324 (and .def_265 .def_323)))
(let ((.def_253 (not .def_252)))
(let ((.def_254 (and .def_249 .def_253)))
(let ((.def_255 (not .def_254)))
(let ((.def_193 (and .s.3.next .def_83)))
(let ((.def_194 (and .def_41 .def_193)))
(let ((.def_195 (and .def_39 .def_194)))
(let ((.def_196 (and .def_36 .def_195)))
(let ((.def_197 (and .def_33 .def_196)))
(let ((.def_198 (and .def_30 .def_197)))
(let ((.def_256 (or .def_198 .def_255)))
(let ((.def_325 (and .def_256 .def_324)))
(let ((.def_130 (and .s.2.next .def_82)))
(let ((.def_203 (and .def_43 .def_130)))
(let ((.def_204 (and .def_41 .def_203)))
(let ((.def_184 (= main.l main.i.next)))
(let ((.def_243 (and .def_184 .def_204)))
(let ((.def_244 (and .def_36 .def_243)))
(let ((.def_245 (and .def_33 .def_244)))
(let ((.def_246 (and .def_30 .def_245)))
(let ((.def_126 (and .s.2 .def_72)))
(let ((.def_240 (and .def_17 .def_126)))
(let ((.def_241 (and .def_20 .def_240)))
(let ((.def_242 (not .def_241)))
(let ((.def_247 (or .def_242 .def_246)))
(let ((.def_326 (and .def_247 .def_325)))
(let ((.def_233 (and .s.3.next .def_173)))
(let ((.def_234 (and .def_41 .def_233)))
(let ((.def_235 (and .def_39 .def_234)))
(let ((.def_236 (and .def_36 .def_235)))
(let ((.def_237 (and .def_33 .def_236)))
(let ((.def_238 (and .def_30 .def_237)))
(let ((.def_113 (and .s.2 .def_59)))
(let ((.def_220 (and .def_17 .def_113)))
(let ((.def_221 (and .def_20 .def_220)))
(let ((.def_159 (<= main.n main.i)))
(let ((.def_231 (and .def_159 .def_221)))
(let ((.def_232 (not .def_231)))
(let ((.def_239 (or .def_232 .def_238)))
(let ((.def_327 (and .def_239 .def_326)))
(let ((.def_224 (and .s.3.next .def_51)))
(let ((.def_225 (and .def_41 .def_224)))
(let ((.def_226 (and .def_39 .def_225)))
(let ((.def_227 (and .def_36 .def_226)))
(let ((.def_228 (and .def_33 .def_227)))
(let ((.def_229 (and .def_30 .def_228)))
(let ((.def_160 (not .def_159)))
(let ((.def_222 (and .def_160 .def_221)))
(let ((.def_223 (not .def_222)))
(let ((.def_230 (or .def_223 .def_229)))
(let ((.def_328 (and .def_230 .def_327)))
(let ((.def_94 (and .def_45 .def_93)))
(let ((.def_213 (and .s.3.next .def_94)))
(let ((.def_214 (and .def_41 .def_213)))
(let ((.def_118 (* (- 1) main.i.next)))
(let ((.def_119 (+ main.i .def_118)))
(let ((.def_120 (= .def_119 (- 1))))
(let ((.def_215 (and .def_120 .def_214)))
(let ((.def_216 (and .def_36 .def_215)))
(let ((.def_217 (and .def_33 .def_216)))
(let ((.def_218 (and .def_30 .def_217)))
(let ((.def_210 (and .s.3 .def_102)))
(let ((.def_211 (and .def_20 .def_210)))
(let ((.def_212 (not .def_211)))
(let ((.def_219 (or .def_212 .def_218)))
(let ((.def_329 (and .def_219 .def_328)))
(let ((.def_205 (and .def_39 .def_204)))
(let ((.def_206 (and .def_36 .def_205)))
(let ((.def_207 (and .def_33 .def_206)))
(let ((.def_208 (and .def_30 .def_207)))
(let ((.def_200 (and .def_15 .s.3)))
(let ((.def_201 (and .def_20 .def_200)))
(let ((.def_202 (not .def_201)))
(let ((.def_209 (or .def_202 .def_208)))
(let ((.def_330 (and .def_209 .def_329)))
(let ((.def_190 (and .s.3 .def_73)))
(let ((.def_191 (and .def_20 .def_190)))
(let ((.def_192 (not .def_191)))
(let ((.def_199 (or .def_192 .def_198)))
(let ((.def_331 (and .def_199 .def_330)))
(let ((.def_106 (and .s.3.next .def_64)))
(let ((.def_107 (and .def_41 .def_106)))
(let ((.def_185 (and .def_107 .def_184)))
(let ((.def_186 (and .def_36 .def_185)))
(let ((.def_187 (and .def_33 .def_186)))
(let ((.def_188 (and .def_30 .def_187)))
(let ((.def_181 (and .s.3 .def_60)))
(let ((.def_182 (and .def_20 .def_181)))
(let ((.def_183 (not .def_182)))
(let ((.def_189 (or .def_183 .def_188)))
(let ((.def_332 (and .def_189 .def_331)))
(let ((.def_175 (and .s.4.next .def_174)))
(let ((.def_176 (and .def_39 .def_175)))
(let ((.def_177 (and .def_36 .def_176)))
(let ((.def_178 (and .def_33 .def_177)))
(let ((.def_179 (and .def_30 .def_178)))
(let ((.def_157 (and .s.3 .def_24)))
(let ((.def_158 (and .def_20 .def_157)))
(let ((.def_171 (and .def_158 .def_159)))
(let ((.def_172 (not .def_171)))
(let ((.def_180 (or .def_172 .def_179)))
(let ((.def_333 (and .def_180 .def_332)))
(let ((.def_164 (and .s.3.next .def_163)))
(let ((.def_165 (and .def_41 .def_164)))
(let ((.def_166 (and .def_39 .def_165)))
(let ((.def_167 (and .def_36 .def_166)))
(let ((.def_168 (and .def_33 .def_167)))
(let ((.def_169 (and .def_30 .def_168)))
(let ((.def_161 (and .def_158 .def_160)))
(let ((.def_162 (not .def_161)))
(let ((.def_170 (or .def_162 .def_169)))
(let ((.def_334 (and .def_170 .def_333)))
(let ((.def_141 (<= 1 main.i)))
(let ((.def_153 (not .def_141)))
(let ((.def_139 (and .s.3 .def_138)))
(let ((.def_140 (and .def_20 .def_139)))
(let ((.def_154 (and .def_140 .def_153)))
(let ((.def_155 (not .def_154)))
(let ((.def_95 (and .def_43 .def_94)))
(let ((.def_96 (and .s.4.next .def_95)))
(let ((.def_97 (and .def_39 .def_96)))
(let ((.def_98 (and .def_36 .def_97)))
(let ((.def_99 (and .def_33 .def_98)))
(let ((.def_100 (and .def_30 .def_99)))
(let ((.def_156 (or .def_100 .def_155)))
(let ((.def_335 (and .def_156 .def_334)))
(let ((.def_146 (and .s.3.next .def_145)))
(let ((.def_147 (and .def_41 .def_146)))
(let ((.def_148 (and .def_39 .def_147)))
(let ((.def_149 (and .def_36 .def_148)))
(let ((.def_150 (and .def_33 .def_149)))
(let ((.def_151 (and .def_30 .def_150)))
(let ((.def_142 (and .def_140 .def_141)))
(let ((.def_143 (not .def_142)))
(let ((.def_152 (or .def_143 .def_151)))
(let ((.def_336 (and .def_152 .def_335)))
(let ((.def_131 (and .s.3.next .def_130)))
(let ((.def_132 (and .def_41 .def_131)))
(let ((.def_133 (and .def_39 .def_132)))
(let ((.def_134 (and .def_36 .def_133)))
(let ((.def_135 (and .def_33 .def_134)))
(let ((.def_136 (and .def_30 .def_135)))
(let ((.def_127 (and .s.3 .def_126)))
(let ((.def_128 (and .def_20 .def_127)))
(let ((.def_129 (not .def_128)))
(let ((.def_137 (or .def_129 .def_136)))
(let ((.def_337 (and .def_137 .def_336)))
(let ((.def_117 (and .s.4.next .def_52)))
(let ((.def_121 (and .def_117 .def_120)))
(let ((.def_122 (and .def_36 .def_121)))
(let ((.def_123 (and .def_33 .def_122)))
(let ((.def_124 (and .def_30 .def_123)))
(let ((.def_114 (and .s.3 .def_113)))
(let ((.def_115 (and .def_20 .def_114)))
(let ((.def_116 (not .def_115)))
(let ((.def_125 (or .def_116 .def_124)))
(let ((.def_338 (and .def_125 .def_337)))
(let ((.def_108 (and .def_39 .def_107)))
(let ((.def_109 (and .def_36 .def_108)))
(let ((.def_110 (and .def_33 .def_109)))
(let ((.def_111 (and .def_30 .def_110)))
(let ((.def_104 (and .s.4 .def_103)))
(let ((.def_105 (not .def_104)))
(let ((.def_112 (or .def_105 .def_111)))
(let ((.def_339 (and .def_112 .def_338)))
(let ((.def_91 (and .def_18 .s.4)))
(let ((.def_92 (not .def_91)))
(let ((.def_101 (or .def_92 .def_100)))
(let ((.def_340 (and .def_101 .def_339)))
(let ((.def_85 (and .s.4.next .def_84)))
(let ((.def_79 (* (- 1) main.k.next)))
(let ((.def_80 (+ main.k .def_79)))
(let ((.def_81 (= .def_80 (- 1))))
(let ((.def_86 (and .def_81 .def_85)))
(let ((.def_87 (and .def_39 .def_86)))
(let ((.def_88 (and .def_33 .def_87)))
(let ((.def_89 (and .def_30 .def_88)))
(let ((.def_75 (and .s.4 .def_74)))
(let ((.def_76 (not .def_75)))
(let ((.def_90 (or .def_76 .def_89)))
(let ((.def_341 (and .def_90 .def_340)))
(let ((.def_67 (and .def_39 .def_66)))
(let ((.def_68 (and .def_36 .def_67)))
(let ((.def_69 (and .def_33 .def_68)))
(let ((.def_70 (and .def_30 .def_69)))
(let ((.def_62 (and .s.4 .def_61)))
(let ((.def_63 (not .def_62)))
(let ((.def_71 (or .def_63 .def_70)))
(let ((.def_342 (and .def_71 .def_341)))
(let ((.def_26 (and .s.4 .def_25)))
(let ((.def_27 (not .def_26)))
(let ((.def_58 (or .def_27 .def_57)))
(let ((.def_343 (and .def_58 .def_342)))
.def_343)))))))))))))))))))))))))))))))))))))))))))))))))))))))))))))))))))))))))))))))))))))))))))))))))))))))))))))))))))))))))))))))))))))))))))))))))))))))))))))))))))))))))))))))))))))))))))))))))))))))))))))))))))))))))))))))))))))))))))))))))))))))))))))))))))))))))))))))))))))))))))))))))))))))))))))))))))))))))) (state |.s.1.next| |.s.0.next| |.s.2.next| |.s.3.next| |.s.4.next| |main.n.next| |main.l.next| |main.k.next| |main.i.next|))))
(assert (forall ((|.s.2| Bool) (|.s.0| Bool) (|.s.1| Bool) (|.s.0.next| Bool) (|.s.1.next| Bool) (|.s.2.next| Bool) (|.s.3.next| Bool) (|.s.4.next| Bool) (|main.i.next| Int) (|main.i| Int) (|main.k.next| Int) (|main.k| Int) (|main.l.next| Int) (|main.l| Int) (|main.n.next| Int) (|main.n| Int) (|.inputVar.0| Int) (|.s.4| Bool) (|.s.3| Bool)) (=> (state |.s.1| |.s.0| |.s.2| |.s.3| |.s.4| |main.n| |main.l| |main.k| |main.i|) (let ((.def_17 (not .s.3)))
(let ((.def_14 (not .s.2)))
(let ((.def_10 (not .s.1)))
(let ((.def_12 (and .def_10 .s.0)))
(let ((.def_15 (and .def_12 .def_14)))
(let ((.def_18 (and .def_15 .def_17)))
(let ((.def_91 (and .def_18 .s.4)))
(let ((.def_92 (not .def_91)))
.def_92)))))))))))
(check-sat)
